
Gurobi 7.5.2 (linux64) logging started Sat Jun 23 16:55:33 2018

Changed value of parameter LogFile to result/ilp/simNo_1-n_100-m_40-s_4-minVAF_0.05-cov_2000-k_2-fn_0.05-fp_0.0001-na_0.15.ILP.gurobiSolverLog
   Prev: gurobi.log  Default: 
Changed value of parameter TimeLimit to 86400.0
   Prev: 1e+100  Min: 0.0  Max: 1e+100  Default: 1e+100
Optimize a model with 1265601 rows, 330440 columns and 3489120 nonzeros
Variable types: 0 continuous, 330440 integer (330440 binary)
Coefficient statistics:
  Matrix range     [2e-03, 3e+00]
  Objective range  [1e-01, 9e+00]
  Bounds range     [1e+00, 1e+00]
  RHS range        [2e-01, 2e+00]
Found heuristic solution: objective -19403.94094
Presolve removed 329283 rows and 213145 columns (presolve time = 6s) ...
Presolve removed 329793 rows and 213145 columns (presolve time = 10s) ...
Presolve removed 329793 rows and 213145 columns (presolve time = 15s) ...
Presolve removed 329793 rows and 213145 columns (presolve time = 20s) ...
Presolve removed 329793 rows and 213145 columns (presolve time = 25s) ...
Presolve removed 329793 rows and 213145 columns (presolve time = 30s) ...
Presolve removed 329793 rows and 213145 columns (presolve time = 35s) ...
Presolve removed 329793 rows and 213145 columns (presolve time = 40s) ...
Presolve removed 329793 rows and 213145 columns (presolve time = 46s) ...
Presolve removed 329793 rows and 213145 columns
Presolve time: 47.83s
Presolved: 935808 rows, 117295 columns, 2593200 nonzeros
Variable types: 0 continuous, 117295 integer (117295 binary)
Presolve removed 0 rows and 0 columns (presolve time = 5s) ...
Presolved: 117295 rows, 1053103 columns, 2710495 nonzeros

Presolve removed 117295 rows and 1053103 columns

Root simplex log...

Iteration    Objective       Primal Inf.    Dual Inf.      Time
       0    7.1850514e+00   0.000000e+00   1.203510e+05     61s
   13872   -1.8415823e+02   0.000000e+00   3.380750e+04     65s
   18080   -2.0592723e+02   0.000000e+00   0.000000e+00     68s
   18080   -2.0592723e+02   0.000000e+00   0.000000e+00     70s

Root relaxation: objective -2.059272e+02, 18080 iterations, 18.63 seconds
Total elapsed time = 71.65s
Total elapsed time = 118.07s
Total elapsed time = 136.94s
Total elapsed time = 163.93s
Total elapsed time = 180.63s

    Nodes    |    Current Node    |     Objective Bounds      |     Work
 Expl Unexpl |  Obj  Depth IntInf | Incumbent    BestBd   Gap | It/Node Time

     0     0 -205.92723    0  907 -19403.941 -205.92723  98.9%     -  207s
H    0     0                    -14421.34549 -205.92723  98.6%     -  222s
H    0     0                    -311.1732014 -205.92723  33.8%     -  223s
H    0     0                    -258.3246399 -205.92723  20.3%     -  224s
     0     0 -210.36959    0  935 -258.32464 -210.36959  18.6%     -  244s
     0     0 -211.84181    0  892 -258.32464 -211.84181  18.0%     -  265s
     0     0 -214.76060    0  887 -258.32464 -214.76060  16.9%     -  286s
     0     0 -214.76060    0  849 -258.32464 -214.76060  16.9%     -  304s
     0     0 -214.78625    0  832 -258.32464 -214.78625  16.9%     -  323s
     0     0 -214.78630    0  831 -258.32464 -214.78630  16.9%     -  337s
     0     0 -216.25852    0  866 -258.32464 -216.25852  16.3%     -  356s
     0     0 -216.25852    0  865 -258.32464 -216.25852  16.3%     -  370s
     0     0 -217.67934    0  748 -258.32464 -217.67934  15.7%     -  393s
     0     0 -217.67934    0  750 -258.32464 -217.67934  15.7%     -  409s
     0     0 -217.70499    0  895 -258.32464 -217.70499  15.7%     -  425s
     0     0 -217.70499    0  897 -258.32464 -217.70499  15.7%     -  441s
     0     0 -219.17720    0  899 -258.32464 -219.17720  15.2%     -  461s
     0     0 -219.17720    0  902 -258.32464 -219.17720  15.2%     -  478s
     0     0 -220.64953    0  902 -258.32464 -220.64953  14.6%     -  498s
     0     0 -221.05494    0 1087 -258.32464 -221.05494  14.4%     -  516s
     0     0 -221.05494    0 1085 -258.32464 -221.05494  14.4%     -  526s
     0     0 -222.14930    0 1005 -258.32464 -222.14930  14.0%     -  549s
     0     0 -222.84793    0 1099 -258.32464 -222.84793  13.7%     -  573s
     0     0 -223.16849    0 1100 -258.32464 -223.16849  13.6%     -  589s
     0     0 -223.16849    0 1102 -258.32464 -223.16849  13.6%     -  598s
     0     0 -225.44704    0  968 -258.32464 -225.44704  12.7%     -  624s
H    0     0                    -252.4358669 -225.44704  10.7%     -  632s
     0     0 -225.46315    0 1083 -252.43587 -225.46315  10.7%     -  642s
     0     0 -225.48739    0 1095 -252.43587 -225.48739  10.7%     -  651s
     0     0 -226.96615    0 1038 -252.43587 -226.96615  10.1%     -  675s
     0     0 -227.49336    0 1055 -252.43587 -227.49336  9.88%     -  696s
     0     0 -227.61589    0 1120 -252.43587 -227.61589  9.83%     -  708s
     0     0 -227.61589    0 1123 -252.43587 -227.61589  9.83%     -  717s
     0     0 -229.81347    0  959 -252.43587 -229.81347  8.96%     -  742s
     0     0 -229.88708    0  957 -252.43587 -229.88708  8.93%     -  761s
     0     0 -229.93616    0  959 -252.43587 -229.93616  8.91%     -  771s
     0     0 -229.93616    0  961 -252.43587 -229.93616  8.91%     -  781s
     0     0 -230.95496    0  641 -252.43587 -230.95496  8.51%     -  801s
H    0     0                    -252.4357619 -230.95496  8.51%     -  808s
     0     0 -231.57456    0 1053 -252.43576 -231.57456  8.26%     -  822s
     0     0 -231.69441    0 1057 -252.43576 -231.69441  8.22%     -  837s
     0     0 -231.71930    0 1045 -252.43576 -231.71930  8.21%     -  849s
     0     0 -231.71931    0 1092 -252.43576 -231.71931  8.21%     -  859s
     0     0 -232.40153    0  613 -252.43576 -232.40153  7.94%     -  883s
     0     0 -232.99064    0 1057 -252.43576 -232.99064  7.70%     -  902s
     0     0 -233.11331    0 1065 -252.43576 -233.11331  7.65%     -  912s
     0     0 -233.14543    0 1062 -252.43576 -233.14543  7.64%     -  924s
     0     0 -233.15153    0 1067 -252.43576 -233.15153  7.64%     -  932s
     0     0 -233.16315    0 1066 -252.43576 -233.16315  7.63%     -  943s
     0     0 -235.72673    0 1022 -252.43576 -235.72673  6.62%     -  970s
     0     0 -236.14790    0 1021 -252.43576 -236.14790  6.45%     -  993s
     0     0 -236.17914    0  986 -252.43576 -236.17914  6.44%     - 1004s
     0     0 -236.21797    0  997 -252.43576 -236.21797  6.42%     - 1016s
     0     0 -236.21797    0  999 -252.43576 -236.21797  6.42%     - 1026s
     0     0 -236.21797    0  997 -252.43576 -236.21797  6.42%     - 1044s
     0     0 -236.21797    0 1010 -252.43576 -236.21797  6.42%     - 1069s
     0     0 -236.21797    0 1004 -252.43576 -236.21797  6.42%     - 1084s
     0     0 -236.46334    0  932 -252.43576 -236.46334  6.33%     - 1213s
     0     0 -236.46334    0  974 -252.43576 -236.46334  6.33%     - 1232s
     0     0 -236.65963    0  988 -252.43576 -236.65963  6.25%     - 1256s
     0     0 -236.65963    0  986 -252.43576 -236.65963  6.25%     - 1271s
     0     0 -236.65963    0  982 -252.43576 -236.65963  6.25%     - 1285s
     0     0 -236.73313    0  894 -252.43576 -236.73313  6.22%     - 1302s
     0     0 -236.73313    0  885 -252.43576 -236.73313  6.22%     - 1388s
     0     0 -236.76732    0  895 -252.43576 -236.76732  6.21%     - 1409s
     0     0 -236.76732    0  904 -252.43576 -236.76732  6.21%     - 1419s
     0     0 -237.71461    0  911 -252.43576 -237.71461  5.83%     - 1441s
     0     0 -237.79873    0  913 -252.43576 -237.79873  5.80%     - 1459s
     0     0 -238.00905    0  812 -252.43576 -238.00905  5.72%     - 1469s
     0     0 -238.00905    0  823 -252.43576 -238.00905  5.72%     - 1479s
     0     0 -238.00905    0  904 -252.43576 -238.00905  5.72%     - 1496s
     0     0 -238.00905    0  899 -252.43576 -238.00905  5.72%     - 1511s
     0     0 -238.00905    0  887 -252.43576 -238.00905  5.72%     - 1531s
     0     0 -238.12230    0  922 -252.43576 -238.12230  5.67%     - 1548s
     0     0 -238.12230    0  929 -252.43576 -238.12230  5.67%     - 1556s
     0     0 -238.49979    0  832 -252.43576 -238.49979  5.52%     - 1678s
     0     0 -238.49979    0  897 -252.43576 -238.49979  5.52%     - 1697s
     0     0 -238.49979    0  843 -252.43576 -238.49979  5.52%     - 1715s
     0     0 -238.49979    0  868 -252.43576 -238.49979  5.52%     - 1732s
     0     0 -238.64000    0  888 -252.43576 -238.64000  5.47%     - 1840s
     0     0 -238.74516    0  889 -252.43576 -238.74516  5.42%     - 1857s
     0     0 -238.74516    0  895 -252.43576 -238.74516  5.42%     - 1866s
     0     0 -238.74516    0  902 -252.43576 -238.74516  5.42%     - 1885s
     0     0 -238.89238    0  902 -252.43576 -238.89238  5.37%     - 1901s
     0     0 -238.89238    0  904 -252.43576 -238.89238  5.37%     - 1910s
     0     0 -238.89238    0  902 -252.43576 -238.89238  5.37%     - 1931s
     0     0 -238.89238    0  899 -252.43576 -238.89238  5.37%     - 1944s
     0     0 -238.89238    0  895 -252.43576 -238.89238  5.37%     - 1963s
     0     0 -238.89238    0  896 -252.43576 -238.89238  5.37%     - 1979s
     0     0 -238.89238    0  892 -252.43576 -238.89238  5.37%     - 2063s
     0     0 -238.89238    0  892 -252.43576 -238.89238  5.37%     - 2100s
     0     2 -238.90068    0  892 -252.43576 -238.90068  5.36%     - 2261s
     1     3 -242.11818    1  703 -252.43576 -238.90068  5.36%  2509 2280s
     2     2     cutoff    2      -252.43576 -238.90068  5.36%  1578 2287s
     3     3 -251.84687    2  217 -252.43576 -238.90068  5.36%  1544 2306s
     6     2 -238.92665    1  901 -252.43576 -238.92665  5.35%   881 2312s
     7     3 -242.16948    2  848 -252.43576 -238.92665  5.35%  1086 2340s
     8     2     cutoff    3      -252.43576 -238.92665  5.35%  1142 2360s
     9     1     cutoff    3      -252.43576 -238.92665  5.35%  2271 2479s
    10     2 -238.92672    2  902 -252.43576 -238.92672  5.35%  2066 2482s
    11     3 -243.64180    3  688 -252.43576 -238.92672  5.35%  1967 2494s
    12     2     cutoff    4      -252.43576 -238.92672  5.35%  1919 2508s
    13     1     cutoff    4      -252.43576 -238.92672  5.35%  2451 2581s
    14     2 -238.92701    3  903 -252.43576 -238.92701  5.35%  2295 2585s
    15     3 -241.43358    4  735 -252.43576 -238.92701  5.35%  2221 2601s
    16     2     cutoff    5      -252.43576 -238.92701  5.35%  2155 2618s
    17     1     cutoff    5      -252.43576 -238.92701  5.35%  2609 2719s
    18     2 -240.75936    4  960 -252.43576 -240.75936  4.63%  2703 2757s
    19     3 -243.69246    5  584 -252.43576 -240.75936  4.63%  2625 2773s
    20     2     cutoff    6      -252.43576 -240.75936  4.63%  2538 2787s
    21     1     cutoff    6      -252.43576 -240.75936  4.63%  2464 2800s
    23     3 -245.16479    6  783 -252.43576 -240.76127  4.62%  2317 2821s
    24     4 -241.54027    6 1374 -252.43576 -241.54027  4.32%  2347 2840s
    25     5 -244.21015    7 1321 -252.43576 -241.54027  4.32%  2315 2858s
    26     6 -244.95465    8  833 -252.43576 -241.54027  4.32%  2233 2862s
    27     7 -244.95465    9  713 -252.43576 -241.54027  4.32%  2152 2865s
    28     8 -246.42687   10  643 -252.43576 -241.54027  4.32%  2085 2870s
    30     8     cutoff   11      -252.43576 -241.54027  4.32%  1968 2876s
    32     8     cutoff   12      -252.43576 -241.54027  4.32%  1858 2881s
    33     9 -250.10742   13  689 -252.43576 -241.54027  4.32%  1817 2885s
    34    10 -250.84353   14  637 -252.43576 -241.54027  4.32%  1771 2890s
    38    10 -251.57964   16  572 -252.43576 -241.54027  4.32%  1600 2896s
    42     6     cutoff    7      -252.43576 -244.22744  3.25%  1652 2992s
    43     5     cutoff    8      -252.43576 -244.95465  2.96%  1624 2996s
    44     4     cutoff    9      -252.43576 -245.18496  2.87%  1601 3000s
    45     3     cutoff    7      -252.43576 -245.19833  2.87%  1582 3010s
    47     1     cutoff    7      -252.43576 -248.63520  1.51%  1543 3022s

Cutting planes:
  Gomory: 1
  Zero half: 244

Explored 49 nodes (154769 simplex iterations) in 3025.09 seconds
Thread count was 1 (of 80 available processors)

Solution count 6: -252.436 -252.436 -258.325 ... -19403.9

Optimal solution found (tolerance 1.00e-04)
Best objective -2.524357619215e+02, best bound -2.524357619215e+02, gap 0.0000%
